
Log started (V11.0.0) Sun May 18 21:30:35 2008

Tried aggregator 1 time.
Reduced MIP has 540 rows, 20001 columns, and 40040 nonzeros.
Presolve time =    0.16 sec.
Clique table members: 500.
MIP emphasis: balance optimality and feasibility.
MIP search method: dynamic search.
Parallel mode: none, using 1 thread.
Root relaxation solution time =    1.63 sec.

        Nodes                                         Cuts/
   Node  Left     Objective  IInf  Best Integer     Best Node    ItCnt     Gap

*     0+    0                        48357.0000      305.8413      946   99.37%
*     0+    0                          354.0000      305.8413      946   13.60%
      0     0      306.1301    80      354.0000      Fract: 5     1011   13.52%
*     0+    0                          350.0000      306.1301     1011   12.53%
      0     0      308.3532    79      350.0000      Cuts: 10     1372   11.90%
      0     0      308.6992    92      350.0000       Cuts: 4     1458   11.80%
*     0+    0                          348.0000      308.6992     1458   11.29%
      0     0      309.0008    89      348.0000       Cuts: 4     1609   11.21%
*     0+    0                          347.0000      309.0008     1609   10.95%
      0     0      309.3263    89      347.0000     Covers: 1     1616   10.86%
      0     0      309.5996    91      347.0000       Cuts: 2     1637   10.78%
      0     0      309.6009    92      347.0000     Covers: 2     1652   10.78%
      0     0      309.7468    89      347.0000     Covers: 2     1669   10.74%
      0     0      309.9084    75      347.0000     Covers: 2     1752   10.69%
      0     0      309.9115    74      347.0000     Covers: 2     1759   10.69%
*     0+    0                          340.0000      309.9115     1759    8.85%
*     0+    0                          329.0000      309.9115     1759    5.80%
*     0+    0                          320.0000      309.9115     1759    3.15%
      0     2      309.9115    74      320.0000      309.9115     1759    3.15%
Elapsed time =  12.34 sec. (tree size =  0.00 MB, solutions = 8)
    100    90      310.0199    73      320.0000      309.9167     6903    3.15%
    200   188      311.0000    47      320.0000      309.9167     9310    3.15%
    300   287      312.0000    46      320.0000      309.9167    10157    3.15%
    400   383      312.0000    55      320.0000      309.9167    12919    3.15%
    500   470      313.0000    35      320.0000      309.9167    15187    3.15%
*   506+  314                          319.0000      313.7255    18082    1.65%
*   506+  209                          318.0000      314.1873    18444    1.20%
    600   224      317.0000    33      318.0000      314.2479    23267    1.18%
    700   213      317.0000    39      318.0000      314.2479    42180    1.18%
    800   205    infeasible            318.0000      314.2479    59203    1.18%
    900   247    infeasible            318.0000      314.2479    78570    1.18%
   1000   291      317.0000    46      318.0000      314.2479    99835    1.18%
Elapsed time = 183.28 sec. (tree size =  4.02 MB, solutions = 10)
   1100   363      315.4167    84      318.0000      314.2499   112115    1.18%
   1200   423      315.0000    35      318.0000      314.2499   133218    1.18%
   1300   483      315.4731    85      318.0000      314.2499   149093    1.18%
   1400   555      317.0000    30      318.0000      314.2499   162791    1.18%
   1500   624      315.0000    41      318.0000      314.2499   179365    1.18%
*  1506+  376                          317.0000      314.2499   181102    0.87%
   1600   438      316.0000    42      317.0000      314.2499   196141    0.87%
   1700   481      316.0000    48      317.0000      314.2499   213703    0.87%
   1800   503      316.0000    46      317.0000      314.2499   242497    0.87%
   1900   546      316.0000    56      317.0000      315.0000   254951    0.63%
   2000   633      316.0000    30      317.0000      315.0000   260858    0.63%
Elapsed time = 396.17 sec. (tree size =  9.07 MB, solutions = 11)
   2100   721      316.0000    36      317.0000      315.0000   268070    0.63%
   2200   779      316.0000    30      317.0000      315.0000   283000    0.63%
   2300   839    infeasible            317.0000      315.0000   299006    0.63%
*  2306+  198                          316.0000      315.0000   299113    0.32%
   2400   267      315.0000    67      316.0000      315.0000   308607    0.32%
   2500   346      315.0000    48      316.0000      315.0000   318430    0.32%
   2600   428      315.0000    64      316.0000      315.0000   325166    0.32%
   2700   528      315.0000    42      316.0000      315.0000   327816    0.32%
   2800   566      315.0000    33      316.0000      315.0000   358580    0.32%
   2900   566      315.0000    30      316.0000      315.0000   405922    0.32%
   3000   568    infeasible            316.0000      315.0000   455304    0.32%
Elapsed time = 616.50 sec. (tree size =  8.77 MB, solutions = 12)
   3100   614      315.0000    50      316.0000      315.0000   480666    0.32%
   3200   624    infeasible            316.0000      315.0000   519997    0.32%
   3300   642      315.0000    61      316.0000      315.0000   557784    0.32%
   3400   676      315.0000    74      316.0000      315.0000   588778    0.32%
   3500   682      315.0000    59      316.0000      315.0000   626444    0.32%
   3600   772      315.0000    29      316.0000      315.0000   632708    0.32%
   3700   872      315.0000    32      316.0000      315.0000   635945    0.32%
   3800   942    infeasible            316.0000      315.0000   650731    0.32%
   3900   974    infeasible            316.0000      315.0000   692231    0.32%
   4000   984    infeasible            316.0000      315.0000   739231    0.32%
Elapsed time = 883.17 sec. (tree size = 16.36 MB, solutions = 12)
   4100  1002      315.0000    58      316.0000      315.0000   777977    0.32%
   4200  1014      315.0000    38      316.0000      315.0000   825371    0.32%
   4300   988    infeasible            316.0000      315.0000   870633    0.32%
   4400   956    infeasible            316.0000      315.0000   919181    0.32%
   4500   982      315.0000    71      316.0000      315.0000   957833    0.32%
   4600  1058      315.0000    74      316.0000      315.0000   971412    0.32%
   4700  1140      315.0000    79      316.0000      315.0000   983571    0.32%
   4800  1110    infeasible            316.0000      315.0000  1042872    0.32%
   4900  1066      315.0000    80      316.0000      315.0000  1121780    0.32%
   5000  1162      315.0000    61      316.0000      315.0000  1125907    0.32%
Elapsed time = 1289.08 sec. (tree size = 20.76 MB, solutions = 12)
   5100  1220      315.0000    70      316.0000      315.0000  1149028    0.32%
   5200  1260      315.0000    53      316.0000      315.0000  1185100    0.32%
   5300  1261    infeasible            316.0000      315.0000  1239979    0.32%
   5400  1244      315.0000    57      316.0000      315.0000  1299112    0.32%
   5500  1298      315.0000    54      316.0000      315.0000  1309078    0.32%
   5600  1344      315.0000    58      316.0000      315.0000  1330712    0.32%
   5700  1364      315.0000    62      316.0000      315.0000  1359275    0.32%
   5800  1368    infeasible            316.0000      315.0000  1389410    0.32%
   5900  1374      315.0000    77      316.0000      315.0000  1421944    0.32%
   6000  1352      315.0000    42      316.0000      315.0000  1477172    0.32%
Elapsed time = 1668.31 sec. (tree size = 25.31 MB, solutions = 12)
   6100  1340    infeasible            316.0000      315.0000  1526819    0.32%
   6200  1392      315.0000    57      316.0000      315.0000  1556710    0.32%
   6300  1448      315.0000    53      316.0000      315.0000  1574595    0.32%
   6400  1474      315.0000    68      316.0000      315.0000  1616285    0.32%
   6500  1490      315.0000    64      316.0000      315.0000  1661024    0.32%
   6600  1508      315.0000    59      316.0000      315.0000  1703436    0.32%
   6700  1586      315.0000    47      316.0000      315.0000  1720721    0.32%
   6800  1626      315.0000    58      316.0000      315.0000  1729455    0.32%
   6900  1682      315.0000    43      316.0000      315.0000  1746368    0.32%
   7000  1716    infeasible            316.0000      315.0000  1774693    0.32%
Elapsed time = 2039.58 sec. (tree size = 34.38 MB, solutions = 12)
   7100  1736      315.0000    57      316.0000      315.0000  1808141    0.32%
   7200  1704    infeasible            316.0000      315.0000  1853035    0.32%
   7300  1661    infeasible            316.0000      315.0000  1921837    0.32%
   7400  1647      315.0000    70      316.0000      315.0000  1999433    0.32%
   7500  1651    infeasible            316.0000      315.0000  2058224    0.32%
   7600  1609    infeasible            316.0000      315.0000  2141704    0.32%
   7700  1585      315.0000   102      316.0000      315.0000  2227704    0.32%
   7800  1617    infeasible            316.0000      315.0000  2270584    0.32%
   7900  1687      315.0000    53      316.0000      315.0000  2277967    0.32%
   8000  1709    infeasible            316.0000      315.0000  2304194    0.32%
Elapsed time = 2791.91 sec. (tree size = 36.36 MB, solutions = 12)
   8100  1721    infeasible            316.0000      315.0000  2343598    0.32%
   8200  1795      315.0000    64      316.0000      315.0000  2361045    0.32%
   8300  1843      315.0000    49      316.0000      315.0000  2382770    0.32%
   8400  1855      315.0000    94      316.0000      315.0000  2434846    0.32%
   8500  1935      315.0000    94      316.0000      315.0000  2443271    0.32%
   8600  1987      315.0000    63      316.0000      315.0000  2465190    0.32%
   8700  2067    infeasible            316.0000      315.0000  2471227    0.32%
   8800  2130      315.0000    82      316.0000      315.0000  2482962    0.32%
   8900  2213      315.0000    66      316.0000      315.0000  2490963    0.32%
   9000  2292      315.0000    71      316.0000      315.0000  2497426    0.32%
Elapsed time = 3210.11 sec. (tree size = 55.23 MB, solutions = 12)
   9100  2252    infeasible            316.0000      315.0000  2529849    0.32%
   9200  2242      315.0000    84      316.0000      315.0000  2583208    0.32%
   9300  2274      315.0000    67      316.0000      315.0000  2631550    0.32%
   9400  2310      315.0000    89      316.0000      315.0000  2664355    0.32%
   9500  2376    infeasible            316.0000      315.0000  2681418    0.32%
   9600  2376    infeasible            316.0000      315.0000  2755716    0.32%
   9700  2444      315.0000    77      316.0000      315.0000  2766493    0.32%
   9800  2452      315.0000   103      316.0000      315.0000  2834844    0.32%
   9900  2470    infeasible            316.0000      315.0000  2896788    0.32%
  10000  2506      315.0000    57      316.0000      315.0000  2941947    0.32%
Elapsed time = 4006.38 sec. (tree size = 65.40 MB, solutions = 12)
  10100  2566    infeasible            316.0000      315.0000  2960854    0.32%
  10200  2599      315.0000    82      316.0000      315.0000  2988866    0.32%
  10300  2636      315.0000    79      316.0000      315.0000  3026774    0.32%
  10400  2614    infeasible            316.0000      315.0000  3098073    0.32%
  10500  2659    infeasible            316.0000      315.0000  3130586    0.32%
  10600  2689      315.0000    93      316.0000      315.0000  3171422    0.32%
  10700  2667    infeasible            316.0000      315.0000  3264523    0.32%
  10800  2723      315.0000    72      316.0000      315.0000  3299285    0.32%
  10900  2767      315.0000    76      316.0000      315.0000  3341046    0.32%
  11000  2801    infeasible            316.0000      315.0000  3402909    0.32%
Elapsed time = 4948.89 sec. (tree size = 80.29 MB, solutions = 12)
  11100  2833    infeasible            316.0000      315.0000  3427328    0.32%
  11200  2805    infeasible            316.0000      315.0000  3510614    0.32%
  11300  2786    infeasible            316.0000      315.0000  3615323    0.32%
  11400  2826    infeasible            316.0000      315.0000  3645129    0.32%
  11500  2862      315.0000    95      316.0000      315.0000  3682889    0.32%
  11600  2902      315.0000    58      316.0000      315.0000  3730286    0.32%
  11700  2970      315.0000    57      316.0000      315.0000  3736562    0.32%
  11800  3040      315.0000    39      316.0000      315.0000  3743530    0.32%
  11900  3106      315.0000    71      316.0000      315.0000  3755810    0.32%
  12000  3168    infeasible            316.0000      315.0000  3762720    0.32%
Elapsed time = 5751.38 sec. (tree size = 99.02 MB, solutions = 12)
  12100  3219      315.0000    56      316.0000      315.0000  3777116    0.32%
  12200  3265    infeasible            316.0000      315.0000  3787593    0.32%
  12300  3327    infeasible            316.0000      315.0000  3794941    0.32%
  12400  3389      315.0000    58      316.0000      315.0000  3801882    0.32%
  12500  3443      315.0000    61      316.0000      315.0000  3811999    0.32%
  12600  3493    infeasible            316.0000      315.0000  3820442    0.32%
  12700  3547      315.0000    49      316.0000      315.0000  3828314    0.32%
  12800  3589    infeasible            316.0000      315.0000  3838389    0.32%
  12900  3647      315.0000    56      316.0000      315.0000  3847707    0.32%
  13000  3703      315.0000    47      316.0000      315.0000  3859528    0.32%
Elapsed time = 6019.98 sec. (tree size = 122.84 MB, solutions = 12)
  13100  3757      315.0000    44      316.0000      315.0000  3870999    0.32%
  13200  3809      315.0000    37      316.0000      315.0000  3876767    0.32%
Began writing nodes to disk (directory ./cpxa03868 created)
  13300  3853      315.0000    60      316.0000      315.0000  3885419    0.32%
  13400  3911      315.0000    57      316.0000      315.0000  3891451    0.32%
  13500  3955      315.0000    45      316.0000      315.0000  3905503    0.32%
  13600  4015      315.0000    45      316.0000      315.0000  3917063    0.32%
  13700  4064      315.0000    27      316.0000      315.0000  3927619    0.32%
  13800  4121      315.0000    55      316.0000      315.0000  3937054    0.32%
  13900  4161      315.0000    72      316.0000      315.0000  3948344    0.32%
  14000  4209      315.0000    41      316.0000      315.0000  3955733    0.32%
Elapsed time = 6269.36 sec. (tree size = 145.50 MB, solutions = 12)
Nodefile size = 18.10 MB (12.38 MB after compression)
  14100  4259      315.0000    37      316.0000      315.0000  3966929    0.32%
  14200  4317      315.0000    51      316.0000      315.0000  3973927    0.32%
  14300  4373    infeasible            316.0000      315.0000  3982014    0.32%
  14400  4421      315.0000    54      316.0000      315.0000  3993743    0.32%
  14500  4477      315.0000    35      316.0000      315.0000  4002157    0.32%
  14600  4523      315.0000    48      316.0000      315.0000  4009613    0.32%
  14700  4581      315.0000    61      316.0000      315.0000  4015062    0.32%
  14800  4645      315.0000    60      316.0000      315.0000  4023644    0.32%
  14900  4705      315.0000    37      316.0000      315.0000  4033894    0.32%
  15000  4777    infeasible            316.0000      315.0000  4041852    0.32%
Elapsed time = 6484.64 sec. (tree size = 170.97 MB, solutions = 12)
Nodefile size = 43.15 MB (29.09 MB after compression)
  15100  4831      315.0000    63      316.0000      315.0000  4052905    0.32%
  15200  4883      315.0000    47      316.0000      315.0000  4058077    0.32%
  15300  4965      315.0000    37      316.0000      315.0000  4067659    0.32%
  15400  5019      315.0000    37      316.0000      315.0000  4079952    0.32%
  15500  5083      315.0000    38      316.0000      315.0000  4088915    0.32%
  15600  5138      315.0000    52      316.0000      315.0000  4098188    0.32%
  15700  5192    infeasible            316.0000      315.0000  4106051    0.32%
  15800  5248      315.0000    48      316.0000      315.0000  4112653    0.32%
  15900  5314    infeasible            316.0000      315.0000  4117053    0.32%
  16000  5364      315.0000    32      316.0000      315.0000  4124239    0.32%
Elapsed time = 6691.92 sec. (tree size = 197.20 MB, solutions = 12)
Nodefile size = 69.29 MB (46.41 MB after compression)
  16100  5419    infeasible            316.0000      315.0000  4131069    0.32%
  16200  5488      315.0000    65      316.0000      315.0000  4141583    0.32%
  16300  5530    infeasible            316.0000      315.0000  4149531    0.32%
  16400  5586      315.0000    46      316.0000      315.0000  4158926    0.32%
  16500  5650      315.0000    41      316.0000      315.0000  4169778    0.32%
  16600  5702    infeasible            316.0000      315.0000  4175664    0.32%
  16700  5770      315.0000    65      316.0000      315.0000  4184037    0.32%
  16800  5824      315.0000    46      316.0000      315.0000  4194347    0.32%
  16900  5878      315.0000    55      316.0000      315.0000  4205203    0.32%
  17000  5918      315.0000    62      316.0000      315.0000  4216986    0.32%
Elapsed time = 6914.06 sec. (tree size = 222.00 MB, solutions = 12)
Nodefile size = 94.47 MB (63.06 MB after compression)
  17100  5962      315.0000    61      316.0000      315.0000  4227833    0.32%
  17200  6024      315.0000    46      316.0000      315.0000  4234365    0.32%
  17300  6077      315.0000    57      316.0000      315.0000  4242321    0.32%
  17400  6139      315.0000    34      316.0000      315.0000  4251090    0.32%
  17500  6181      315.0000    43      316.0000      315.0000  4260252    0.32%
  17600  6211      315.0000    54      316.0000      315.0000  4267404    0.32%
  17700  6259      315.0000    65      316.0000      315.0000  4278114    0.32%
  17800  6321    infeasible            316.0000      315.0000  4284658    0.32%
  17900  6373      315.0000    43      316.0000      315.0000  4290297    0.32%
  18000  6409      315.0000    52      316.0000      315.0000  4297969    0.32%
Elapsed time = 7113.84 sec. (tree size = 243.98 MB, solutions = 12)
Nodefile size = 116.53 MB (77.63 MB after compression)
  18100  6473      315.0000    36      316.0000      315.0000  4305936    0.32%
  18200  6539      315.0000    65      316.0000      315.0000  4314088    0.32%
  18300  6605      315.0000    42      316.0000      315.0000  4326106    0.32%

Cover cuts applied:  2693
Mixed integer rounding cuts applied:  4
Gomory fractional cuts applied:  3

Solution pool: 12 solutions saved.

MIP - Time limit exceeded, integer feasible:  Objective = 3.1600000000e+002
Current MIP best bound = 3.1500000000e+002 (gap = 1, 0.32%)
Solution time = 7200.06 sec.  Iterations = 4333765  Nodes = 18362 (6630)


Incumbent solution
Variable Name           Solution Value
Cmax                        316.000000
X_1_11                        1.000000
X_2_4                         1.000000
X_3_20                        1.000000
X_4_36                        1.000000
X_5_34                        1.000000
X_6_11                        1.000000
X_7_36                        1.000000
X_8_25                        1.000000
X_9_36                        1.000000
X_10_31                       1.000000
X_11_17                       1.000000
X_12_33                       1.000000
X_13_26                       1.000000
X_14_19                       1.000000
X_15_34                       1.000000
X_16_17                       1.000000
X_17_15                       1.000000
X_18_34                       1.000000
X_19_15                       1.000000
X_20_34                       1.000000
X_21_10                       1.000000
X_22_13                       1.000000
X_23_24                       1.000000
X_24_22                       1.000000
X_25_36                       1.000000
X_26_31                       1.000000
X_27_32                       1.000000
X_28_33                       1.000000
X_29_34                       1.000000
X_30_13                       1.000000
X_31_36                       1.000000
X_32_35                       1.000000
X_33_11                       1.000000
X_34_35                       1.000000
X_35_10                       1.000000
X_36_35                       1.000000
X_37_36                       1.000000
X_38_37                       1.000000
X_39_35                       1.000000
X_40_27                       1.000000
X_41_34                       1.000000
X_42_23                       1.000000
X_43_34                       1.000000
X_44_15                       1.000000
X_45_28                       1.000000
X_46_24                       1.000000
X_47_32                       1.000000
X_48_10                       1.000000
X_49_1                        1.000000
X_50_36                       1.000000
X_51_36                       1.000000
X_52_36                       1.000000
X_53_11                       1.000000
X_54_22                       1.000000
X_55_29                       1.000000
X_56_36                       1.000000
X_57_4                        1.000000
X_58_15                       1.000000
X_59_38                       1.000000
X_60_22                       1.000000
X_61_35                       1.000000
X_62_8                        1.000000
X_63_38                       1.000000
X_64_18                       1.000000
X_65_15                       1.000000
X_66_33                       1.000000
X_67_36                       1.000000
X_68_8                        1.000000
X_69_36                       1.000000
X_70_34                       1.000000
X_71_35                       1.000000
X_72_37                       1.000000
X_73_15                       1.000000
X_74_36                       1.000000
X_75_36                       1.000000
X_76_38                       1.000000
X_77_12                       1.000000
X_78_15                       1.000000
X_79_26                       1.000000
X_80_36                       1.000000
X_81_35                       1.000000
X_82_20                       1.000000
X_83_34                       1.000000
X_84_4                        1.000000
X_85_35                       1.000000
X_86_15                       1.000000
X_87_34                       1.000000
X_88_35                       1.000000
X_89_22                       1.000000
X_90_4                        1.000000
X_91_24                       1.000000
X_92_36                       1.000000
X_93_17                       1.000000
X_94_19                       1.000000
X_95_15                       1.000000
X_96_14                       1.000000
X_97_27                       1.000000
X_98_26                       1.000000
X_99_15                       1.000000
X_100_30                      1.000000
X_101_36                      1.000000
X_102_15                      1.000000
X_103_27                      1.000000
X_104_11                      1.000000
X_105_22                      1.000000
X_106_10                      1.000000
X_107_10                      1.000000
X_108_35                      1.000000
X_109_13                      1.000000
X_110_15                      1.000000
X_111_33                      1.000000
X_112_36                      1.000000
X_113_23                      1.000000
X_114_13                      1.000000
X_115_17                      1.000000
X_116_28                      1.000000
X_117_15                      1.000000
X_118_17                      1.000000
X_119_36                      1.000000
X_120_36                      1.000000
X_121_26                      1.000000
X_122_10                      1.000000
X_123_22                      1.000000
X_124_24                      1.000000
X_125_39                      1.000000
X_126_27                      1.000000
X_127_15                      1.000000
X_128_34                      1.000000
X_129_36                      1.000000
X_130_13                      1.000000
X_131_26                      1.000000
X_132_9                       1.000000
X_133_9                       1.000000
X_134_18                      1.000000
X_135_36                      1.000000
X_136_36                      1.000000
X_137_17                      1.000000
X_138_17                      1.000000
X_139_36                      1.000000
X_140_6                       1.000000
X_141_36                      1.000000
X_142_35                      1.000000
X_143_25                      1.000000
X_144_3                       1.000000
X_145_33                      1.000000
X_146_15                      1.000000
X_147_27                      1.000000
X_148_34                      1.000000
X_149_22                      1.000000
X_150_34                      1.000000
X_151_15                      1.000000
X_152_19                      1.000000
X_153_33                      1.000000
X_154_22                      1.000000
X_155_17                      1.000000
X_156_7                       1.000000
X_157_16                      1.000000
X_158_34                      1.000000
X_159_14                      1.000000
X_160_36                      1.000000
X_161_10                      1.000000
X_162_9                       1.000000
X_163_39                      1.000000
X_164_6                       1.000000
X_165_35                      1.000000
X_166_36                      1.000000
X_167_17                      1.000000
X_168_12                      1.000000
X_169_35                      1.000000
X_170_9                       1.000000
X_171_22                      1.000000
X_172_30                      1.000000
X_173_1                       1.000000
X_174_3                       1.000000
X_175_7                       1.000000
X_176_36                      1.000000
X_177_11                      1.000000
X_178_3                       1.000000
X_179_36                      1.000000
X_180_36                      1.000000
X_181_11                      1.000000
X_182_10                      1.000000
X_183_36                      1.000000
X_184_33                      1.000000
X_185_36                      1.000000
X_186_11                      1.000000
X_187_11                      1.000000
X_188_35                      1.000000
X_189_10                      1.000000
X_190_15                      1.000000
X_191_17                      1.000000
X_192_13                      1.000000
X_193_15                      1.000000
X_194_10                      1.000000
X_195_4                       1.000000
X_196_33                      1.000000
X_197_13                      1.000000
X_198_36                      1.000000
X_199_39                      1.000000
X_200_11                      1.000000
X_201_38                      1.000000
X_202_10                      1.000000
X_203_13                      1.000000
X_204_5                       1.000000
X_205_31                      1.000000
X_206_33                      1.000000
X_207_34                      1.000000
X_208_34                      1.000000
X_209_17                      1.000000
X_210_28                      1.000000
X_211_4                       1.000000
X_212_36                      1.000000
X_213_35                      1.000000
X_214_36                      1.000000
X_215_17                      1.000000
X_216_36                      1.000000
X_217_31                      1.000000
X_218_34                      1.000000
X_219_34                      1.000000
X_220_39                      1.000000
X_221_30                      1.000000
X_222_18                      1.000000
X_223_24                      1.000000
X_224_5                       1.000000
X_225_26                      1.000000
X_226_17                      1.000000
X_227_36                      1.000000
X_228_10                      1.000000
X_229_17                      1.000000
X_230_2                       1.000000
X_231_15                      1.000000
X_232_13                      1.000000
X_233_15                      1.000000
X_234_15                      1.000000
X_235_36                      1.000000
X_236_15                      1.000000
X_237_11                      1.000000
X_238_35                      1.000000
X_239_11                      1.000000
X_240_36                      1.000000
X_241_30                      1.000000
X_242_13                      1.000000
X_243_39                      1.000000
X_244_17                      1.000000
X_245_26                      1.000000
X_246_22                      1.000000
X_247_36                      1.000000
X_248_34                      1.000000
X_249_13                      1.000000
X_250_34                      1.000000
X_251_21                      1.000000
X_252_36                      1.000000
X_253_35                      1.000000
X_254_40                      1.000000
X_255_24                      1.000000
X_256_22                      1.000000
X_257_14                      1.000000
X_258_31                      1.000000
X_259_29                      1.000000
X_260_4                       1.000000
X_261_37                      1.000000
X_262_24                      1.000000
X_263_4                       1.000000
X_264_36                      1.000000
X_265_7                       1.000000
X_266_3                       1.000000
X_267_26                      1.000000
X_268_36                      1.000000
X_269_36                      1.000000
X_270_11                      1.000000
X_271_11                      1.000000
X_272_15                      1.000000
X_273_29                      1.000000
X_274_10                      1.000000
X_275_36                      1.000000
X_276_22                      1.000000
X_277_30                      1.000000
X_278_33                      1.000000
X_279_33                      1.000000
X_280_4                       1.000000
X_281_16                      1.000000
X_282_28                      1.000000
X_283_34                      1.000000
X_284_2                       1.000000
X_285_32                      1.000000
X_286_24                      1.000000
X_287_36                      1.000000
X_288_36                      1.000000
X_289_13                      1.000000
X_290_39                      1.000000
X_291_15                      1.000000
X_292_10                      1.000000
X_293_37                      1.000000
X_294_11                      1.000000
X_295_34                      1.000000
X_296_13                      1.000000
X_297_7                       1.000000
X_298_10                      1.000000
X_299_10                      1.000000
X_300_39                      1.000000
X_301_13                      1.000000
X_302_36                      1.000000
X_303_36                      1.000000
X_304_11                      1.000000
X_305_36                      1.000000
X_306_17                      1.000000
X_307_39                      1.000000
X_308_34                      1.000000
X_309_11                      1.000000
X_310_36                      1.000000
X_311_34                      1.000000
X_312_35                      1.000000
X_313_7                       1.000000
X_314_24                      1.000000
X_315_24                      1.000000
X_316_36                      1.000000
X_317_11                      1.000000
X_318_27                      1.000000
X_319_15                      1.000000
X_320_24                      1.000000
X_321_6                       1.000000
X_322_10                      1.000000
X_323_23                      1.000000
X_324_25                      1.000000
X_325_35                      1.000000
X_326_36                      1.000000
X_327_17                      1.000000
X_328_34                      1.000000
X_329_21                      1.000000
X_330_36                      1.000000
X_331_9                       1.000000
X_332_34                      1.000000
X_333_34                      1.000000
X_334_23                      1.000000
X_335_34                      1.000000
X_336_35                      1.000000
X_337_35                      1.000000
X_338_36                      1.000000
X_339_16                      1.000000
X_340_16                      1.000000
X_341_3                       1.000000
X_342_30                      1.000000
X_343_21                      1.000000
X_344_28                      1.000000
X_345_36                      1.000000
X_346_13                      1.000000
X_347_24                      1.000000
X_348_26                      1.000000
X_349_29                      1.000000
X_350_24                      1.000000
X_351_33                      1.000000
X_352_10                      1.000000
X_353_36                      1.000000
X_354_36                      1.000000
X_355_33                      1.000000
X_356_6                       1.000000
X_357_21                      1.000000
X_358_4                       1.000000
X_359_37                      1.000000
X_360_26                      1.000000
X_361_15                      1.000000
X_362_30                      1.000000
X_363_35                      1.000000
X_364_21                      1.000000
X_365_36                      1.000000
X_366_2                       1.000000
X_367_11                      1.000000
X_368_39                      1.000000
X_369_13                      1.000000
X_370_15                      1.000000
X_371_16                      1.000000
X_372_34                      1.000000
X_373_24                      1.000000
X_374_36                      1.000000
X_375_36                      1.000000
X_376_27                      1.000000
X_377_36                      1.000000
X_378_11                      1.000000
X_379_15                      1.000000
X_380_15                      1.000000
X_381_36                      1.000000
X_382_34                      1.000000
X_383_4                       1.000000
X_384_29                      1.000000
X_385_25                      1.000000
X_386_8                       1.000000
X_387_33                      1.000000
X_388_11                      1.000000
X_389_13                      1.000000
X_390_36                      1.000000
X_391_36                      1.000000
X_392_36                      1.000000
X_393_35                      1.000000
X_394_13                      1.000000
X_395_34                      1.000000
X_396_36                      1.000000
X_397_10                      1.000000
X_398_24                      1.000000
X_399_34                      1.000000
X_400_36                      1.000000
X_401_15                      1.000000
X_402_13                      1.000000
X_403_8                       1.000000
X_404_34                      1.000000
X_405_15                      1.000000
X_406_26                      1.000000
X_407_24                      1.000000
X_408_34                      1.000000
X_409_35                      1.000000
X_410_36                      1.000000
X_411_36                      1.000000
X_412_23                      1.000000
X_413_34                      1.000000
X_414_36                      1.000000
X_415_30                      1.000000
X_416_33                      1.000000
X_417_33                      1.000000
X_418_37                      1.000000
X_419_28                      1.000000
X_420_17                      1.000000
X_421_18                      1.000000
X_422_12                      1.000000
X_423_40                      1.000000
X_424_39                      1.000000
X_425_22                      1.000000
X_426_3                       1.000000
X_427_23                      1.000000
X_428_17                      1.000000
X_429_24                      1.000000
X_430_23                      1.000000
X_431_15                      1.000000
X_432_33                      1.000000
X_433_35                      1.000000
X_434_15                      1.000000
X_435_1                       1.000000
X_436_36                      1.000000
X_437_36                      1.000000
X_438_19                      1.000000
X_439_36                      1.000000
X_440_35                      1.000000
X_441_20                      1.000000
X_442_11                      1.000000
X_443_13                      1.000000
X_444_24                      1.000000
X_445_34                      1.000000
X_446_24                      1.000000
X_447_36                      1.000000
X_448_36                      1.000000
X_449_11                      1.000000
X_450_13                      1.000000
X_451_37                      1.000000
X_452_36                      1.000000
X_453_11                      1.000000
X_454_34                      1.000000
X_455_36                      1.000000
X_456_36                      1.000000
X_457_15                      1.000000
X_458_15                      1.000000
X_459_26                      1.000000
X_460_15                      1.000000
X_461_34                      1.000000
X_462_34                      1.000000
X_463_10                      1.000000
X_464_4                       1.000000
X_465_36                      1.000000
X_466_34                      1.000000
X_467_9                       1.000000
X_468_36                      1.000000
X_469_15                      1.000000
X_470_35                      1.000000
X_471_11                      1.000000
X_472_36                      1.000000
X_473_10                      1.000000
X_474_36                      1.000000
X_475_15                      1.000000
X_476_4                       1.000000
X_477_36                      1.000000
X_478_24                      1.000000
X_479_4                       1.000000
X_480_34                      1.000000
X_481_5                       1.000000
X_482_13                      1.000000
X_483_36                      1.000000
X_484_15                      1.000000
X_485_15                      1.000000
X_486_40                      1.000000
X_487_26                      1.000000
X_488_33                      1.000000
X_489_36                      1.000000
X_490_36                      1.000000
X_491_22                      1.000000
X_492_3                       1.000000
X_493_24                      1.000000
X_494_35                      1.000000
X_495_39                      1.000000
X_496_24                      1.000000
X_497_13                      1.000000
X_498_33                      1.000000
X_499_22                      1.000000
X_500_4                       1.000000
All other variables in the range 1-20001 are 0.
